param n := 2;

param m := 5;

param K := 500;

param a :=
1 	 0.993913
2 	 0.546071
;
 param A :=
[1, *, *]:  1	2	:=
1	0.052852	-0.288590	
2	-0.729144	-0.947563	

[2, *, *]:  1	2	:=
1	-0.679210	-0.939201	
2	0.491274	-0.266914	

[3, *, *]:  1	2	:=
1	0.724693	0.381884	
2	0.385355	-0.622726	

[4, *, *]:  1	2	:=
1	-0.116191	0.979503	
2	0.163155	-0.592188	

[5, *, *]:  1	2	:=
1	-0.504534	0.500345	
2	-0.475654	-0.086049	
;